\* Bid_Optimization_Model *\
Maximize
OBJ: - 4.43917978222e-16 sub_1_choice_0 + 29.4861892892 sub_1_choice_1
 + 53.364991176 sub_1_choice_2 + 71.6364056605 sub_1_choice_3
 + 84.3004327427 sub_1_choice_4 + 84.3004327427 sub_1_choice_5
 + 90.3943354788 sub_1_choice_6 + 94.3287812426 sub_1_choice_7
 + 96.0400404624 sub_1_choice_8 + 95.8255983803 sub_1_choice_9
 + 15.5370949527 sub_2_choice_1 + 30.3314863612 sub_2_choice_2
 + 44.3831742254 sub_2_choice_3 + 57.6921585455 sub_2_choice_4
 + 57.6921585455 sub_2_choice_5 + 67.8045994497 sub_2_choice_6
 + 73.9611439789 sub_2_choice_7 + 70.265522987 sub_2_choice_8
 + 60.9814038777 sub_2_choice_9 + 2.21958989111e-16 sub_3_choice_0
 + 25.212382672 sub_3_choice_1 + 46.8855883435 sub_3_choice_2
 + 65.0196170146 sub_3_choice_3 + 79.6144686852 sub_3_choice_4
 + 79.6144686852 sub_3_choice_5 + 88.7421425814 sub_3_choice_6
 + 94.0866480576 sub_3_choice_7 + 95.9260236285 sub_3_choice_8
 + 94.9649649472 sub_3_choice_9
Subject To
_C1: sub_1_choice_0 + sub_1_choice_1 + sub_1_choice_2 + sub_1_choice_3
 + sub_1_choice_4 + sub_1_choice_5 + sub_1_choice_6 + sub_1_choice_7
 + sub_1_choice_8 + sub_1_choice_9 <= 1
_C2: sub_2_choice_0 + sub_2_choice_1 + sub_2_choice_2 + sub_2_choice_3
 + sub_2_choice_4 + sub_2_choice_5 + sub_2_choice_6 + sub_2_choice_7
 + sub_2_choice_8 + sub_2_choice_9 <= 1
_C3: sub_3_choice_0 + sub_3_choice_1 + sub_3_choice_2 + sub_3_choice_3
 + sub_3_choice_4 + sub_3_choice_5 + sub_3_choice_6 + sub_3_choice_7
 + sub_3_choice_8 + sub_3_choice_9 <= 1
_C4: 0.111111111111 sub_1_choice_1 + 0.222222222222 sub_1_choice_2
 + 0.333333333333 sub_1_choice_3 + 0.444444444444 sub_1_choice_4
 + 0.555555555556 sub_1_choice_5 + 0.666666666667 sub_1_choice_6
 + 0.777777777778 sub_1_choice_7 + 0.888888888889 sub_1_choice_8
 + sub_1_choice_9 + 0.111111111111 sub_2_choice_1
 + 0.222222222222 sub_2_choice_2 + 0.333333333333 sub_2_choice_3
 + 0.444444444444 sub_2_choice_4 + 0.555555555556 sub_2_choice_5
 + 0.666666666667 sub_2_choice_6 + 0.777777777778 sub_2_choice_7
 + 0.888888888889 sub_2_choice_8 + sub_2_choice_9
 + 0.111111111111 sub_3_choice_1 + 0.222222222222 sub_3_choice_2
 + 0.333333333333 sub_3_choice_3 + 0.444444444444 sub_3_choice_4
 + 0.555555555556 sub_3_choice_5 + 0.666666666667 sub_3_choice_6
 + 0.777777777778 sub_3_choice_7 + 0.888888888889 sub_3_choice_8
 + sub_3_choice_9 <= 1
Binaries
sub_1_choice_0
sub_1_choice_1
sub_1_choice_2
sub_1_choice_3
sub_1_choice_4
sub_1_choice_5
sub_1_choice_6
sub_1_choice_7
sub_1_choice_8
sub_1_choice_9
sub_2_choice_0
sub_2_choice_1
sub_2_choice_2
sub_2_choice_3
sub_2_choice_4
sub_2_choice_5
sub_2_choice_6
sub_2_choice_7
sub_2_choice_8
sub_2_choice_9
sub_3_choice_0
sub_3_choice_1
sub_3_choice_2
sub_3_choice_3
sub_3_choice_4
sub_3_choice_5
sub_3_choice_6
sub_3_choice_7
sub_3_choice_8
sub_3_choice_9
End
